# Solution for model GasLib-40
# Objective value = 4.7052910994988721e+01
loadshed[innode_1] 0
loadshed[innode_2] 0
loadshed[innode_3] 0
loadshed[innode_4] 0
loadshed[innode_5] 0
loadshed[innode_6] 0
loadshed[innode_7] 0
loadshed[innode_8] 0
loadshed[source_1] -1.3715348900566382e-01
loadshed[source_2] 2.0335420318641018e-01
loadshed[source_3] 2.3143245881628871e-01
loadshed[sink_1] 2.3075048534102249e-02
loadshed[sink_2] 0
loadshed[sink_3] 0
loadshed[sink_4] 0
loadshed[sink_5] 0
loadshed[sink_6] 0
loadshed[sink_7] 0
loadshed[sink_8] 0
loadshed[sink_9] 0
loadshed[sink_10] 0
loadshed[sink_11] 0
loadshed[sink_12] 1
loadshed[sink_13] 0
loadshed[sink_14] 0
loadshed[sink_15] 0
loadshed[sink_16] 0
loadshed[sink_17] 0
loadshed[sink_18] 0
loadshed[sink_19] 0
loadshed[sink_20] 0
loadshed[sink_21] 1
loadshed[sink_22] 0
loadshed[sink_23] 0
loadshed[sink_24] 8.5404562377094029e-01
loadshed[sink_25] 0
loadshed[sink_26] 0
loadshed[sink_27] 0
loadshed[sink_28] 0
loadshed[sink_29] 0
flow[source_1,sink_3] 1.7977291095287455e+02
flow[innode_1,sink_16] 1.6354166666666970e+01
flow[innode_6,sink_13] -7.0238894100500033e+00
flow[sink_13,sink_14] -2.3378056076716671e+01
flow[sink_14,sink_10] -3.9732222743383339e+01
flow[sink_25,sink_26] 1.9825958900501251e+02
flow[sink_26,sink_9] 3.2708333333334551e+01
flow[sink_9,sink_18] 1.6354166666667879e+01
flow[sink_26,sink_4] 1.4919708900501129e+02
flow[sink_4,sink_20] 3.4021224265474530e+01
flow[sink_18,sink_6] 0
flow[sink_25,innode_8] -1.4706457761953817e+02
flow[sink_6,sink_7] -4.8685126810431868e+01
flow[sink_6,sink_22] 32.3309601437652
flow[sink_7,sink_24] 2.3869621945794157e+00
flow[sink_22,sink_1] 1.5976793477098537e+01
flow[sink_24,sink_21] 0
flow[sink_21,sink_12] 0
flow[sink_7,sink_5] -6.7426255671677950e+01
flow[sink_5,sink_17] -8.3780422338344621e+01
flow[sink_17,sink_4] -9.8821698072870092e+01
flow[sink_17,sink_8] -1.3128909321411972e+00
flow[sink_3,sink_23] 16.3541666666697
flow[sink_8,sink_20] -17.6670575988079
flow[sink_25,sink_20] 0
flow[sink_25,sink_15] -6.0525288642091652e+01
flow[sink_15,sink_29] 0
flow[sink_29,sink_28] 1.6354166666667879e+01
flow[sink_29,sink_2] 93.233621975425
flow[sink_2,sink_15] 7.6879455308758324e+01
flow[sink_29,innode_7] -1.2594195530875953e+02
flow[innode_4,sink_19] 4.7195482744267565e+01
flow[sink_19,innode_3] 4.3331449896450280e+01
flow[innode_4,innode_5] 7.4307573332449010e+01
flow[sink_27,innode_5] -7.4307573332449010e+01
flow[sink_27,sink_19] 5.7953406665782339e+01
flow[sink_10,sink_11] 3.2708333333333641e+01
flow[sink_10,innode_2] -4.5463272846933364e+01
flow[sink_10,innode_3] -4.3331449896450280e+01
flow[innode_6,sink_25] 7.0238894100500033e+00
flow[sink_11,innode_1] 1.6354166666666970e+01
flow[sink_19,innode_2] 4.5463272846933364e+01
flow[source_3,innode_4] 1.2150305607671658e+02
flow[source_2,innode_7] 1.2594195530875953e+02
flow[sink_3,innode_8] 1.4706457761953817e+02
pressure[innode_1] 7.6546617692223791e+01
pressure[innode_2] 79.1012407392543
pressure[innode_3] 7.9005288150213019e+01
pressure[innode_4] 81.01325
pressure[innode_5] 8.0962137332811466e+01
pressure[innode_6] 7.4738482102670915e+01
pressure[innode_7] 81.01325
pressure[innode_8] 8.0412337834425742e+01
pressure[source_1] 81.01325
pressure[source_2] 81.01325
pressure[source_3] 81.01325
pressure[sink_1] 1.01325
pressure[sink_2] 7.5283083207371917e+01
pressure[sink_3] 8.0412337834425742e+01
pressure[sink_4] 4.1805871645046295e+01
pressure[sink_5] 3.1788196317257647e+01
pressure[sink_6] 3.0778131141760818e+00
pressure[sink_7] 3.7461438575049786e+00
pressure[sink_8] 3.8078770984854444e+01
pressure[sink_9] 5.8817497512563094e+01
pressure[sink_10] 7.6698318999827336e+01
pressure[sink_11] 7.6546617692223791e+01
pressure[sink_12] 1.01325
pressure[sink_13] 7.4777203631187561e+01
pressure[sink_14] 7.4819040653906924e+01
pressure[sink_15] 7.5032088729747855e+01
pressure[sink_16] 7.5524967857406111e+01
pressure[sink_17] 3.8029232199177990e+01
pressure[sink_18] 5.8225755018763387e+01
pressure[sink_19] 79.1012407392543
pressure[sink_20] 3.9309916442871831e+01
pressure[sink_21] 1.01325
pressure[sink_22] 2.0524726177660688e+00
pressure[sink_23] 8.0247619822765955e+01
pressure[sink_24] 1.01325
pressure[sink_25] 7.4738482102670915e+01
pressure[sink_26] 60.7751756804477
pressure[sink_27] 80.345521779784
pressure[sink_28] 7.7349513798916590e+01
pressure[sink_29] 7.7644796072533765e+01
interdiction[source_1,sink_3] 0
interdiction[innode_1,sink_16] 0
interdiction[innode_6,sink_13] 0
interdiction[sink_13,sink_14] 0
interdiction[sink_14,sink_10] 0
interdiction[sink_25,sink_26] 0
interdiction[sink_26,sink_9] 0
interdiction[sink_9,sink_18] 0
interdiction[sink_26,sink_4] 0
interdiction[sink_4,sink_20] 0
interdiction[sink_18,sink_6] 1
interdiction[sink_25,innode_8] 0
interdiction[sink_6,sink_7] 0
interdiction[sink_6,sink_22] 0
interdiction[sink_7,sink_24] 0
interdiction[sink_22,sink_1] 0
interdiction[sink_24,sink_21] 0
interdiction[sink_21,sink_12] 0
interdiction[sink_7,sink_5] 0
interdiction[sink_5,sink_17] 0
interdiction[sink_17,sink_4] 0
interdiction[sink_17,sink_8] 0
interdiction[sink_3,sink_23] 0
interdiction[sink_8,sink_20] 0
interdiction[sink_25,sink_20] 1
interdiction[sink_25,sink_15] 0
interdiction[sink_15,sink_29] 1
interdiction[sink_29,sink_28] 0
interdiction[sink_29,sink_2] 0
interdiction[sink_2,sink_15] 0
interdiction[sink_29,innode_7] 0
interdiction[innode_4,sink_19] 0
interdiction[sink_19,innode_3] 0
interdiction[innode_4,innode_5] 0
interdiction[sink_27,innode_5] 0
interdiction[sink_27,sink_19] 0
interdiction[sink_10,sink_11] 0
interdiction[sink_10,innode_2] 0
interdiction[sink_10,innode_3] 0
interdiction[innode_6,sink_25] 0
interdiction[sink_11,innode_1] 0
interdiction[sink_19,innode_2] 0
interdiction[source_3,innode_4] 0
interdiction[source_2,innode_7] 0
interdiction[sink_3,innode_8] 0
WCcheckFlow[source_1,sink_3] 39
WCcheckFlow[innode_1,sink_16] 1
WCcheckFlow[innode_6,sink_13] 13
WCcheckFlow[sink_13,sink_14] 12
WCcheckFlow[sink_14,sink_10] 11
WCcheckFlow[sink_25,sink_26] 15
WCcheckFlow[sink_26,sink_9] 2
WCcheckFlow[sink_9,sink_18] 1
WCcheckFlow[sink_26,sink_4] 12
WCcheckFlow[sink_4,sink_20] 1
WCcheckFlow[sink_18,sink_6] 0
WCcheckFlow[sink_25,innode_8] -36
WCcheckFlow[sink_6,sink_7] -3
WCcheckFlow[sink_6,sink_22] 2
WCcheckFlow[sink_7,sink_24] 3
WCcheckFlow[sink_22,sink_1] 1
WCcheckFlow[sink_24,sink_21] 2
WCcheckFlow[sink_21,sink_12] 1
WCcheckFlow[sink_7,sink_5] -7
WCcheckFlow[sink_5,sink_17] -8
WCcheckFlow[sink_17,sink_4] -10
WCcheckFlow[sink_17,sink_8] 1
WCcheckFlow[sink_3,sink_23] 1
WCcheckFlow[sink_8,sink_20] 0
WCcheckFlow[sink_25,sink_20] 0
WCcheckFlow[sink_25,sink_15] 6
WCcheckFlow[sink_15,sink_29] 0
WCcheckFlow[sink_29,sink_28] 1
WCcheckFlow[sink_29,sink_2] -4
WCcheckFlow[sink_2,sink_15] -5
WCcheckFlow[sink_29,innode_7] 2
WCcheckFlow[innode_4,sink_19] -4
WCcheckFlow[sink_19,innode_3] -5
WCcheckFlow[innode_4,innode_5] 2
WCcheckFlow[sink_27,innode_5] -1
WCcheckFlow[sink_27,sink_19] 0
WCcheckFlow[sink_10,sink_11] 3
WCcheckFlow[sink_10,innode_2] 1
WCcheckFlow[sink_10,innode_3] 6
WCcheckFlow[innode_6,sink_25] -14
WCcheckFlow[sink_11,innode_1] 2
WCcheckFlow[sink_19,innode_2] 0
WCcheckFlow[source_3,innode_4] -1
WCcheckFlow[source_2,innode_7] -1
WCcheckFlow[sink_3,innode_8] 37
